NAME : bays29_solution.tour
TYPE : TOUR
DIMENSION : 30
COMMENT : Tour length: 2489.0
COMMENT : Time elapsed: 25.48 [s]
TOUR_SECTION
0
23
15
24
6
18
3
14
10
21
13
16
17
9
19
2
28
0
7
22
26
12
20
1
25
4
8
11
5
27
-1
EOF
